PROBLEM NAME: small_5_BoundedStronglyCorrelated_n14_m39_c5
KNAPSACK DATA TYPE:
DIMENSION: 14
NUMBER OF ITEMS: 39
CAPACITY OF KNAPSACK: 9192
MIN SPEED: 0.1
MAX SPEED: 1.0
RENTING RATIO: 1.0
EDGE_WEIGHT_TYPE: CEIL_2D
NODE_COORD_SECTION	(INDEX, X, Y): 
1	423	65
2	322	824
3	21	284
4	641	160
5	881	581
6	622	946
7	459	62
8	775	536
9	102	673
10	407	614
11	467	760
12	493	38
13	813	316
14	838	276
ITEMS SECTION	(INDEX, PROFIT, WEIGHT, ASSIGNED NODE NUMBER): 
1	356	256	2
2	984	884	2
3	117	17	2
4	161	61	3
5	1092	992	3
6	461	361	3
7	857	757	4
8	673	573	4
9	939	839	4
10	1013	913	5
11	688	588	5
12	721	621	5
13	134	34	6
14	660	560	6
15	821	721	6
16	748	648	7
17	628	528	7
18	259	159	7
19	349	249	8
20	830	730	8
21	609	509	8
22	690	590	9
23	638	538	9
24	803	703	9
25	446	346	10
26	471	371	10
27	808	708	10
28	500	400	11
29	330	230	11
30	582	482	11
31	460	360	12
32	571	471	12
33	665	565	12
34	578	478	13
35	1086	986	13
36	1046	946	13
37	246	146	14
38	563	463	14
39	540	440	14
